
-15.7
-15.2
-14.6
-13.8
-12.2
-10.9
-8.8
-7.9
-6.4
-5.6
-5.2
-4.7
-3.9
-3.5
-3.2
-3.1
-2.9
-2.9
-2.9
-2.8
-2.8
-2.7
-2.7
-2.7
-2.7
-2.7
-2.6
-2.6
-2.6
-2.6
-2.5
-2.4
-2.4
-2.4
-2.4
-2.4
-2.4
-2.4
-2.4
-2.4
-2.4
-2.4
-2.4
-2.4
-2.4
-2.4
-2.4
-2.4
-2.4
-2.4
-2.4
-15.3
-14.9
-14.5
-14.1
-12.5
-10.9
-9.85
-8.05
-7.05
-5.95
-5.0
-4.3
-3.85
-3.45
-3.1
-3.05
-2.95
-2.9
-2.7
-2.65
-2.65
-2.65
-2.65
-2.65
-2.65
-2.65
-2.65
-2.65
-2.65
-2.65
-2.65
-2.65
-2.6
-2.6
-2.6
-2.6
-2.6
-2.6
-2.6
-2.6
-15.35
-14.95
-14.65
-13.25
-12.15
-10.9
-9.25
-7.85
-6.75
-5.5
-4.95
-4.35
-3.95
-3.5
-3.15
-3.0
-2.9
-2.9
-2.9
-2.9
-2.85
-2.8
-2.75
-2.75
-2.75
-2.7
-2.7
-2.7
-2.7
-2.7
-2.65
-2.65
-2.65
-2.65
-2.65